GeneratedTests/Random_11/Random_11_3.tsp
NAME: Random_11_3
TYPE: TSP
DIMENSION: 11
EDGE_WEIGHT_TYPE: EUC_2D
NODE_COORD_SECTION
1 24.122448 14.17052
2 32.255627 26.005846
3 3.8507752 4.2807236
4 0.77318376 21.403578
5 0.8765806 5.386126
6 27.428385 25.543621
7 9.796364 4.7257686
8 7.122462 10.593405
9 11.69904 7.7481575
10 28.649176 19.56592
11 27.498285 17.619698
EOF
