GeneratedTests/Random_11/Random_11_3.txt
NAME: Random_11_3
TYPE: TSP
DIMENSION: 11
EDGE_WEIGHT_TYPE: EUC_2D
NODE_COORD_SECTION
1 29.49478 20.965723
2 30.152372 24.857628
3 25.444925 10.730475
4 23.646416 6.68034
5 5.785083 5.3661532
6 0.6222634 16.673552
7 24.174776 0.4258021
8 31.527653 16.43209
9 4.428306 26.853222
10 21.718996 16.1608
11 6.5331664 6.418853
EOF
